hypoDD_2
* RELOC.INP:
*--- input file selection
dt.cc
*
*catalog P diff times:
dt.ct
*
* event file:
event.dat
*
* station file:
station.dat
*
*--- output file selection
* original locations:
hypoDD.loc
* relocations:
hypoDD.reloc
* station information:
hypoDD.sta
* residual information:
hypoDD.res
* source paramater information:
hypoDD.src
*
*
*--- data type selection: 
* IDAT:  1= cross corr; 2= catalog; 3= cross & cat 
* IPHA: 1= P; 2= S; 3= P&S
* DIST:max dist [km] between cluster centroid and station 
* IDAT   IPHA   MAXDIST  
    2     3      150 	  
*
*--- event clustering:
* OBSCC:    min # of obs/pair for crosstime data (0= no clustering)
* OBSCT:    min # of obs/pair for network data (0= no clustering)
* MINDIST:  min pair-station distance (-9= not active)
* MAXDIST:  max pair-station distance (-9= not active)
* MAXGAP:   max azimuthal gap (-9= not active)
* OBSCC  OBSCT    MINDIST  MAXDIST  MAXGAP
     0     8        -999     -999    -999 
*
*--- solution control:
* ISTART:  	1 = from single source; 2 = from network sources
* ISOLV:	1 = SVD, 2=lsqr
* IAQ:		remove airquakes: 0=NO, 1=YES
* NSET:      	number of sets of iteration with specifications following
*  ISTART  ISOLV  IAQ  NSET
    2        1     1     5 
*
*--- data weighting and re-weighting: 
* NITER: 		last iteration to used the following weights
* WTCCP, WTCCS:		weight cross P, S 
* WTCTP, WTCTS:		weight catalog P, S 
* WRCC, WRCT:		residual threshold in sec for cross, catalog data 
* WDCC, WDCT:  		max dist [km] between cross, catalog linked pairs
* DAMP:    		damping (for lsqr only) 
*       ---  CROSS DATA ----- ----CATALOG DATA ----
* NITER  WTCCP  WTCCS  WRCC  WDCC  WTCTP  WTCTS  WRCT  WDCT DAMP
  1      0.01   0.005  -999  -999  1.00   0.5    20   -999  20  ctcc
  3      0.01   0.005  -999  -999  1.00   0.5    10     4   20  ctcc
  3      1      0.5      6     3   1.00   0.5    10     3   20  ctcc
  3      1      0.5      5     2   0.1    0.05    9     2   20  ctcc
  3      1      0.5      4     1   0.01   0.005   8     2   20  ctcc
*
*  1      1      0.5    -999  -999  1.00   0.5   -999  -999  20  cc
*  3      1      0.5      5     3   1.00   0.5    10    10   20  cc
*  3      1      0.5      4     2   1.00   0.5    10    10   20  cc
*
*  1      1      0.5    -999  -999  1.00   0.5     40  -999  20  ct
*  5      1      0.5     10     5   1.00   0.5     20    5   20  ct
*  5      1      0.5     10     5   1.00   0.5     11    3   20  ct
*
*--- FORWARD MODEL:
* IMOD  0= 1D local, layered, P velocity w/ fixed vp/vs ratio (hypoDD1.0);
*       1= 1D local, layered, P velocity w/ variable vp/vs ratio 
*       9= 3D local model (simulps raytracer)
*
*--- 1D model, fixed vp/vs ratio:
* NLAY:		number of model layers  
* RATIO:	vp/vs ratio 
* TOP:		depths of top of layer (km) 
* VEL: 		layer velocities (km/s)
* IMOD
* NLAY  RATIO 
* MOD_TOP , MOD_V
*0
*9     1.73
*0.00 1.00 2.00 3.00 5.00 6.00 9.00 15.00 25.00
*1.42 4.82 5.36 5.60 5.65 5.90 6.15  6.60  8.00 
***0.00 0.25 1.50 2.50 3.50 5.00 6.00 9.00 15.00 25.00
**1.42 3.24 4.82 5.36 5.60 5.65 5.90 6.15  6.60  8.00 
*
*
*--- 1D model, variable  vp/vs ratio:
* TOP:		depths of top of layer (km) 
* VEL: 		layer velocities (km/s) end w/ -9
* RATIO:   	layer ratios  end w/ -9
* IMOD
1
0.0000 0.5000 1.0000 1.5000 2.0000 2.5000 3.0000 3.5000 4.0000 4.5000 5.0000 5.5000 6.0000 8.0000 10.0000 15.0000 20.0000 25.0000 30.0000 -9
2.3000 2.6000 2.9000 3.2000 3.5000 3.8000 4.1000 4.3000 4.5000 4.7000 4.9000 5.1000 5.3000 5.5000 5.7000 5.9000 6.1000 6.3000 6.5000 -9
1.73   1.73   1.73   1.73   1.73   1.73   1.73   1.73   1.73   1.73   1.73   1.73   1.73   1.73   1.73   1.73   1.73   1.73   1.73 -9
*
*--- Local 3D model:
* IMOD
* 3DMOD                 name of 3D velocity model
* LAT_3D LON_3D ROT_3D  origin of 3D velocity model and rotation of 
* 			cart coord. system (pos= anti clockwise)
* 			raytracing parameters
* IPHA NDIP ISKIP SCALE1 SCALE2 XFAX TLIM NITPB simulps ray tracing parameters
*9
*vel3D.dat
*37.878078  -122.243950  0 
*2     9     4      1       1      1.35  0.0005  50
**2     9     2      1       1      1.35  0.0005  50
*
*--- event.datection:
* CID: 	cluste 0r to be relocated (0 = all)
* ID:	cuspids of event to be relocated (8 per line)
* CID    
    1      
* ID
